(declare-const y0 Real)
(declare-const y1 Real)
(declare-const y2 Real)
(declare-const y3 Real)
(declare-const y4 Real)
(declare-const y5 Real)
(declare-const y6 Real)
(declare-const y7 Real)
(declare-const y8 Real)
(declare-const y9 Real)
(declare-const y10 Real)
(declare-const y11 Real)
(declare-const y12 Real)
(declare-const y13 Real)
(assert (= y1 (+ y5 (+ (+ 52 28) (+ y8 87)))))
(assert (= 22 y3))
(assert (< (+ y8 (+ y3 9)) (+ (+ y5 y1) y3)))
(assert (= 98 y9))
(assert (= y8 y13))
(assert (< 20 y5))
(assert (< 47 (+ y8 (+ 10 y0))))
(assert (< 2 89))
(assert (< y3 (+ y6 y6)))
(assert (< y2 y5))
(check-sat)
